s td 206 10 235
b 1 4 40 189
b 2 12 161 214
b 3 40 141 189
b 4 43 142 161
b 5 64 99 191
b 6 83 84 163
b 7 26 91 103
b 8 79 94 102
b 9 107 136 223
b 10 58 112 211
b 11 72 132 148
b 12 51 101 139
b 13 41 142 161
b 14 1 21 151
b 15 35 156 190
b 16 131 166 181
b 17 165 189 220
b 18 97 157 199
b 19 41 161
b 20 13 165 220
b 21 152 215 221
b 22 7 53 54 216
b 23 13 74 165
b 24 20 30 148 164
b 25 30 48 148
b 26 34 44 75 95
b 27 31 38 123 180
b 28 41 153 188 203
b 29 28 44 75
b 30 58 208 211
b 31 24 72 148
b 32 74 165 204
b 33 47 54 81 150
b 34 47 54 153
b 35 51 86 105 227
b 36 51 93 101
b 37 24 48 148
b 38 84 163 228
b 39 29 123 182 222
b 40 29 123 134
b 41 75 82 159 184
b 42 18 25 186 211
b 43 42 84 108 200
b 44 1 21 52 70
b 45 5 14 16 109
b 46 8 80 103 176
b 47 10 35 190 196
b 48 9 15 124 174
b 49 22 89 144 157
b 50 23 27 179 207
b 51 18 25 59 211
b 52 31 115 123 180
b 53 32 94 117 188
b 54 33 70 135 207
b 55 2 26 48 67 82 90 114 124 176 201
b 56 26 48 67 82 90 114 124 176 201 218
b 57 11 26 67 82 90 114 124 176 201 218
b 58 11 26 62 67 82 90 124 176 201 218
b 59 11 26 62 67 82 90 124 176 192 201
b 60 11 26 37 62 67 82 90 176 192 201
b 61 11 26 37 67 82 90 176 192 197
b 62 11 26 37 67 82 172 176 192 197
b 63 11 26 37 67 82 172 191 192 197
b 64 11 28 37 67 82 118 172 191 192
b 65 11 28 37 63 67 118 172 191 192
b 66 28 37 63 67 118 126 172 191 192
b 67 28 37 63 67 126 138 172 191 192
b 68 28 37 63 67 126 138 172 191 198
b 69 28 37 50 63 67 138 172 191 198
b 70 28 50 63 67 138 147 172 191 198
b 71 28 50 63 67 138 147 172 191 210
b 72 28 50 63 85 138 147 172 191 210
b 73 28 50 63 85 138 172 191 210 224
b 74 28 50 63 85 138 191 210 215 224
b 75 28 50 63 138 180 210 215 224
b 76 28 50 138 145 180 210 215 224
b 77 50 116 138 145 180 210 215 224
b 78 16 50 116 145 180 210 215 224
b 79 14 16 50 116 180 210 215 224
b 80 14 16 109 116 180 210 215 224
b 81 3 14 109 116 180 210 215 224
b 82 3 14 109 116 180 205 215 224
b 83 3 14 115 116 123 180 205
b 84 3 14 100 115 116 123 205
b 85 3 14 17 100 115 123 205
b 86 3 14 17 87 100 123 205
b 87 3 17 87 100 123 146 205
b 88 3 87 100 123 129 146 205
b 89 87 100 123 129 146 205 230
b 90 87 100 123 129 134 230
b 91 87 100 129 134 216 230
b 92 76 87 129 134 216 230
b 93 76 87 129 178 216 230
b 94 76 129 178 216 219 230
b 95 76 77 129 178 219 230
b 96 129 146 171 205 230
b 97 166 171 205 230
b 98 3 109 205 215 217 224
b 99 85 152 191 215 224
b 100 28 82 118 159
b 101 26 119 172 191 197
b 102 37 56 62 90 192 201
b 103 2 26 48 82 114 124 176 201 225 227
b 104 2 26 114 124 174 176 183 201 225 227
b 105 2 9 26 124 174 176 183 201 206 227
b 106 2 9 26 113 176 183 185 201 206 227
b 107 2 26 78 80 113 176 183 185 206 227
b 108 26 78 80 97 113 176 183 206 227
b 109 78 80 97 113 144 176 183 206 227
b 110 21 78 89 97 113 144 183 206 227
b 111 21 78 89 113 122 144 183 206 227
b 112 21 78 89 113 122 133 183 206 227
b 113 21 78 113 122 127 133 183 206 227
b 114 21 106 113 122 127 133 183 206 227
b 115 21 106 113 122 127 128 183 206 227
b 116 6 21 106 122 127 128 183 206 227
b 117 6 21 122 127 128 183 187 206 227
b 118 6 21 122 127 128 160 183 187 227
b 119 21 93 122 127 128 160 183 187 227
b 120 21 61 93 122 127 128 160 183 187
b 121 21 61 93 98 122 127 128 173 187
b 122 18 21 61 93 98 122 127 128 173
b 123 18 21 88 98 122 127 128 155 173
b 124 18 21 88 98 122 127 155 190 207
b 125 18 27 88 98 127 155 190 207
b 126 18 27 98 155 179 190 207
b 127 18 27 39 98 155 179 190
b 128 18 39 98 155 177 179 190
b 129 18 39 98 121 155 177 190
b 130 18 39 59 98 121 177 190
b 131 18 39 59 98 121 190 208
b 132 19 39 59 98 121 190 208
b 133 19 39 73 108 121 190 208
b 134 39 65 73 108 121 190 232
b 135 39 65 108 190 196 232
b 136 39 65 169 190 196
b 137 35 169 190 196
b 138 39 45 65 108 196 232
b 139 45 68 108 196 232
b 140 45 68 108 223 232
b 141 68 108 223 229 232
b 142 108 223 228 229 232
b 143 84 108 228 229
b 144 175 223 228 229 232
b 145 18 59 208 211
b 146 21 88 122 127 137 190 207
b 147 21 70 122 137 190 207
b 148 21 52 70 122 137
b 149 70 122 135 137 190 207
b 150 61 93 98 154 173 187
b 151 93 105 160 227
b 152 51 93 105 227
b 153 21 89 97 144 157
b 154 26 80 97 103 176
b 155 48 71 82 225 227
b 156 24 48 71 225 227
b 157 36 85 147 210
b 158 42 84 108 229
b 159 46 59 98 177
b 160 49 76 77 178
b 161 53 54 117 216
b 162 54 117 153 216
b 163 117 153 188 216 219
b 164 117 178 188 216 219
b 165 117 153 188 203 219
b 166 94 117 188 203 219
b 167 55 85 152 224
b 168 57 63 118 126
b 169 28 60 145 180
b 170 65 66 73 121
b 171 69 205 215 217
b 172 28 75 82 159
b 173 79 94 203 219
b 174 6 92 160 183
b 175 50 96 147 198
b 176 26 99 119 191
b 177 17 100 104 115
b 178 16 110 116 145
b 179 61 93 111 154
b 180 120 155 177 179
b 181 88 125 127 137
b 182 114 130 174 225
b 183 131 166 171 205
b 184 136 194 204 223
b 185 88 128 140 173
b 186 48 82 143 218
b 187 68 149 229 232
b 188 3 109 158 217
b 189 67 90 162 197
b 190 165 175 204 228
b 191 11 62 167 218
b 192 17 87 146 168
b 193 6 106 170 206
b 194 106 113 133 193
b 195 175 194 204 223 228
b 196 175 204 223 228
b 197 154 173 187 195
b 198 76 134 202 216
b 199 9 185 201 209
b 200 126 138 198 212
b 201 24 71 213 225
b 202 2 80 185 226
b 203 19 73 208 231
b 204 78 89 133 233
b 205 56 62 192 234
b 206 37 56 90 235
1 3
2 19
3 17
4 13
5 176
6 38
7 154
8 173
9 184
10 30
11 31
12 36
13 19
14 44
15 137
16 183
17 20
18 153
19 28
20 23
21 99
22 161
23 32
24 25
25 37
26 29
27 52
28 165
29 172
30 145
31 37
32 190
33 34
34 162
35 152
36 152
37 156
38 143
39 40
40 90
41 172
42 51
43 158
44 148
45 80
46 154
47 137
48 105
49 153
50 126
51 145
52 83
53 166
54 149
55 56
55 103
56 186
56 57
57 58
58 191
58 59
59 60
60 61
60 102
61 189
61 62
62 63
63 64
63 101
64 65
64 100
65 66
66 168
66 67
67 68
68 200
68 69
69 70
70 175
70 71
71 72
72 157
72 73
73 74
74 75
74 99
75 76
76 169
76 77
77 78
78 178
78 79
79 80
80 81
81 82
82 83
82 98
83 84
84 85
85 177
85 86
86 87
87 192
87 88
88 89
89 90
89 96
90 91
91 92
92 198
92 93
93 94
94 164
94 95
95 160
96 97
97 183
98 171
98 188
99 167
100 172
101 176
102 205
102 206
103 104
103 155
104 182
104 105
105 106
106 199
106 107
107 202
107 108
108 109
108 154
109 110
110 111
110 153
111 112
112 204
112 113
113 114
114 194
114 115
115 116
116 193
116 117
117 118
118 174
118 119
119 120
119 151
120 121
121 122
121 150
122 123
123 185
123 124
124 125
124 146
125 126
126 127
127 128
128 180
128 129
129 130
130 159
130 131
131 132
131 145
132 133
133 203
133 134
134 170
134 135
135 136
135 138
136 137
138 139
139 140
140 141
141 187
141 142
142 143
142 144
143 158
144 196
146 181
146 147
147 148
147 149
150 179
150 197
151 152
155 156
156 201
161 162
162 163
163 165
163 164
165 166
166 173
184 195
190 196
195 196
